&CONTROL
   tprnfor          = .true.
   disk_io          = 'low'
   pseudo_dir       = './'
/
&SYSTEM
   ecutwfc          = 22.049585401645693
   ecutrho          = 88.19834160658277
   ntyp             = 2
   nat              = 3
   ibrav            = 0
/
&ELECTRONS
/
&IONS
/
&CELL
/

ATOMIC_SPECIES
O 15.999 O.pw91-van_ak.UPF
H 1.008 H.pw91-van_ak.UPF

K_POINTS automatic
3 3 3  0 0 0

CELL_PARAMETERS angstrom
10.00000000000000 0.00000000000000 0.00000000000000
0.00000000000000 10.00000000000000 0.00000000000000
0.00000000000000 0.00000000000000 10.00000000000000

ATOMIC_POSITIONS angstrom
O 0.0000000000 -0.0633785877 0.0000000000 
H 0.7696279086 0.5316892810 0.0000000000 
H -0.7696279086 0.5316892810 0.0000000000 

