! Gallium Arsenide: Tutorial Example 1

!!$ restart = plot
 hr_plot = TRUE
 bands_plot = .true.

begin kpoint_path
L 0.50000  0.50000 0.5000 G 0.00000  0.00000 0.0000
G 0.00000  0.00000 0.0000 X 0.50000  0.00000 0.5000
X 0.50000 -0.50000 0.0000 K 0.37500 -0.37500 0.0000
K 0.37500 -0.37500 0.0000 G 0.00000  0.00000 0.0000
end kpoint_path

!! wannier_plot = false
 wannier_plot = true
 num_wann    =  8 
 num_iter    = 2000 
 !!wannier_plot_format = cube

conv_window=2

! SYSTEM

begin unit_cell_cart
bohr
 0.000000    5.341311    5.341311
 5.341311    0.000000    5.341311
 5.341311    5.341311    0.000000
end unit_cell_cart

begin atoms_frac
Ga 0.00   0.00   0.00
As 0.25  0.25  0.25 
end atoms_frac
 

!use_bloch_phases = true
begin projections
As:sp3
Ga:sp3
end projections

! KPOINTS

mp_grid : 4 4 4

begin kpoints
  0.00000000  0.00000000  0.00000000 
  0.00000000  0.00000000  0.25000000 
  0.00000000  0.00000000  0.50000000 
  0.00000000  0.00000000  0.75000000 
  0.00000000  0.25000000  0.00000000 
  0.00000000  0.25000000  0.25000000 
  0.00000000  0.25000000  0.50000000 
  0.00000000  0.25000000  0.75000000 
  0.00000000  0.50000000  0.00000000 
  0.00000000  0.50000000  0.25000000 
  0.00000000  0.50000000  0.50000000 
  0.00000000  0.50000000  0.75000000 
  0.00000000  0.75000000  0.00000000 
  0.00000000  0.75000000  0.25000000 
  0.00000000  0.75000000  0.50000000 
  0.00000000  0.75000000  0.75000000 
  0.25000000  0.00000000  0.00000000 
  0.25000000  0.00000000  0.25000000 
  0.25000000  0.00000000  0.50000000 
  0.25000000  0.00000000  0.75000000 
  0.25000000  0.25000000  0.00000000 
  0.25000000  0.25000000  0.25000000 
  0.25000000  0.25000000  0.50000000 
  0.25000000  0.25000000  0.75000000 
  0.25000000  0.50000000  0.00000000 
  0.25000000  0.50000000  0.25000000 
  0.25000000  0.50000000  0.50000000 
  0.25000000  0.50000000  0.75000000 
  0.25000000  0.75000000  0.00000000 
  0.25000000  0.75000000  0.25000000 
  0.25000000  0.75000000  0.50000000 
  0.25000000  0.75000000  0.75000000 
  0.50000000  0.00000000  0.00000000 
  0.50000000  0.00000000  0.25000000 
  0.50000000  0.00000000  0.50000000 
  0.50000000  0.00000000  0.75000000 
  0.50000000  0.25000000  0.00000000 
  0.50000000  0.25000000  0.25000000 
  0.50000000  0.25000000  0.50000000 
  0.50000000  0.25000000  0.75000000 
  0.50000000  0.50000000  0.00000000 
  0.50000000  0.50000000  0.25000000 
  0.50000000  0.50000000  0.50000000 
  0.50000000  0.50000000  0.75000000 
  0.50000000  0.75000000  0.00000000 
  0.50000000  0.75000000  0.25000000 
  0.50000000  0.75000000  0.50000000 
  0.50000000  0.75000000  0.75000000 
  0.75000000  0.00000000  0.00000000 
  0.75000000  0.00000000  0.25000000 
  0.75000000  0.00000000  0.50000000 
  0.75000000  0.00000000  0.75000000 
  0.75000000  0.25000000  0.00000000 
  0.75000000  0.25000000  0.25000000 
  0.75000000  0.25000000  0.50000000 
  0.75000000  0.25000000  0.75000000 
  0.75000000  0.50000000  0.00000000 
  0.75000000  0.50000000  0.25000000 
  0.75000000  0.50000000  0.50000000 
  0.75000000  0.50000000  0.75000000 
  0.75000000  0.75000000  0.00000000 
  0.75000000  0.75000000  0.25000000 
  0.75000000  0.75000000  0.50000000 
  0.75000000  0.75000000  0.75000000 
end kpoints

!We set this flag to read the bloch states from
!a formatted file. This is to ensure the example
!works on all platforms. The default (.false.) state
!should be used on production runs
!wvfn_formatted=.true.
